\ENCODING=ISO-8859-1
\Problem name: ilog.cplex

Minimize
 obj: 42 x1 + 35.4 x2 + 42 x3 + 44 x4 + 45 x5 + 35.4 x6 + 42 x7 + 42 x8 + 42 x9
      + 42 x10 + 42 x11 + 27.1 x12
Subject To
 c1:  x1 >= 1
 c2:  x2 >= 1
 c3:  x3 >= 1
 c4:  x4 >= 1
 c5:  x5 >= 1
 c6:  x6 >= 1
 c7:  x7 >= 1
 c8:  x8 >= 1
 c9:  x9 >= 1
 c10: x10 >= 1
 c11: x11 >= 1
 c12: x12 >= 1
 c13: x1 + x2 + x3 + x4 + x5 + x6 + x7 + x8 + x9 + x11 >= 1
 c14: x10 + x12 >= 1
End
